*Heading
 File created by HOHQMesh
*NODE
1,       0.000000000000,       0.000000000000,       0.000000000000
2,       1.000000000000,       0.000000000000,       0.000000000000
3,       2.000000000000,       0.000000000000,       0.000000000000
4,       3.000000000000,       0.000000000000,       0.000000000000
5,       4.000000000000,       0.000000000000,       0.000000000000
6,       5.000000000000,       0.000000000000,       0.000000000000
7,       6.000000000000,       0.000000000000,       0.000000000000
8,       7.000000000000,       0.000000000000,       0.000000000000
9,       8.000000000000,       0.000000000000,       0.000000000000
10,       9.000000000000,       0.000000000000,       0.000000000000
11,      10.000000000000,       0.000000000000,       0.000000000000
12,      11.000000000000,       0.000000000000,       0.000000000000
13,      12.000000000000,       0.000000000000,       0.000000000000
14,      13.000000000000,       0.000000000000,       0.000000000000
15,      14.000000000000,       0.000000000000,       0.000000000000
16,      15.000000000000,       0.000000000000,       0.000000000000
17,      16.000000000000,       0.000000000000,       0.000000000000
18,      17.000000000000,       0.000000000000,       0.000000000000
19,      18.000000000000,       0.000000000000,       0.000000000000
20,      19.000000000000,       0.000000000000,       0.000000000000
21,      20.000000000000,       0.000000000000,       0.000000000000
22,      21.000000000000,       0.000000000000,       0.000000000000
23,      22.000000000000,       0.000000000000,       0.000000000000
24,      23.000000000000,       0.000000000000,       0.000000000000
25,      24.000000000000,       0.000000000000,       0.000000000000
26,      25.000000000000,       0.000000000000,       0.000000000000
27,      26.000000000000,       0.000000000000,       0.000000000000
28,      27.000000000000,       0.000000000000,       0.000000000000
29,      28.000000000000,       0.000000000000,       0.000000000000
30,      29.000000000000,       0.000000000000,       0.000000000000
31,      30.000000000000,       0.000000000000,       0.000000000000
32,       0.000000000000,       1.000000000000,       0.000000000000
33,       1.014186538201,       1.015335860207,       0.000000000000
34,       2.001872061124,       1.043423133193,       0.000000000000
35,       3.030402916000,       1.232182372070,       0.000000000000
36,       3.995276694202,       1.088386384715,       0.000000000000
37,       4.960757270007,       1.232440654868,       0.000000000000
38,       5.991567920163,       1.045121355173,       0.000000000000
39,       6.978223917496,       1.018596282973,       0.000000000000
40,       7.986207682084,       1.007242114842,       0.000000000000
41,       8.994347583848,       1.002886763342,       0.000000000000
42,       9.998633470011,       1.000757806247,       0.000000000000
43,      10.999785374718,       1.000126624237,       0.000000000000
44,      11.999981970679,       1.000017319800,       0.000000000000
45,      13.000019829986,       1.000022284444,       0.000000000000
46,      14.000077868956,       1.000078333150,       0.000000000000
47,      15.000212776769,       1.000223956976,       0.000000000000
48,      16.000467134102,       1.000591449461,       0.000000000000
49,      17.000837373958,       1.001427115342,       0.000000000000
50,      18.001109639089,       1.002774330346,       0.000000000000
51,      19.000858967006,       1.004112785891,       0.000000000000
52,      20.000000000578,       1.004675080553,       0.000000000000
53,      20.999141033978,       1.004112785951,       0.000000000000
54,      21.998890361514,       1.002774330421,       0.000000000000
55,      22.999162626306,       1.001427115395,       0.000000000000
56,      23.999532865951,       1.000591449474,       0.000000000000
57,      24.999787221455,       1.000223956111,       0.000000000000
58,      25.999922065974,       1.000078298617,       0.000000000000
59,      26.999978671535,       1.000021434030,       0.000000000000
60,      27.999995779646,       1.000004219974,       0.000000000000
61,      28.999999397255,       1.000000599368,       0.000000000000
62,      30.000000000000,       1.000000000000,       0.000000000000
63,       0.000000000000,       2.000000000000,       0.000000000000
64,       1.041305942642,       2.004442646210,       0.000000000000
65,       2.064988682280,       2.069463214792,       0.000000000000
66,       2.706474838969,       1.871002589169,       0.000000000000
67,       5.280898249120,       1.872448527052,       0.000000000000
68,       5.925865044921,       2.069799914604,       0.000000000000
69,       6.942730374862,       2.009669534582,       0.000000000000
70,       7.957180785763,       2.012983785712,       0.000000000000
71,       8.986358891521,       2.005180500792,       0.000000000000
72,       9.996976223238,       2.001298473580,       0.000000000000
73,      10.999547833331,       2.000208005667,       0.000000000000
74,      11.999976140573,       2.000041988144,       0.000000000000
75,      13.000109611924,       2.000113885152,       0.000000000000
76,      14.000426585224,       2.000427579084,       0.000000000000
77,      15.001167039576,       2.001161811357,       0.000000000000
78,      16.002295632379,       2.002538219619,       0.000000000000
79,      17.003418755276,       2.005755689675,       0.000000000000
80,      18.003915936336,       2.011941439371,       0.000000000000
81,      19.002844896796,       2.018576473033,       0.000000000000
82,      20.000000003892,       2.021360881014,       0.000000000000
83,      20.997155109713,       2.018576473554,       0.000000000000
84,      21.996084067453,       2.011941439995,       0.000000000000
85,      22.996581246277,       2.005755690101,       0.000000000000
86,      23.997704368057,       2.002538219816,       0.000000000000
87,      24.998832957095,       2.001161810174,       0.000000000000
88,      25.999573287311,       2.000427528285,       0.000000000000
89,      26.999887394522,       2.000112604602,       0.000000000000
90,      27.999978294989,       2.000021594141,       0.000000000000
91,      28.999997100704,       2.000002879689,       0.000000000000
92,      30.000000000000,       2.000000000000,       0.000000000000
93,       0.000000000000,       3.000000000000,       0.000000000000
94,       1.229771481548,       3.035200490905,       0.000000000000
95,       1.866829596438,       2.712530984811,       0.000000000000
96,       6.126269979265,       2.711598353508,       0.000000000000
97,       6.750508712937,       3.037651006616,       0.000000000000
98,       7.929244472025,       3.012733761125,       0.000000000000
99,       8.978918423391,       3.004521256982,       0.000000000000
100,       9.995471204064,       3.001085051089,       0.000000000000
101,      10.999345259095,       3.000174740209,       0.000000000000
102,      12.000014186925,       3.000094697333,       0.000000000000
103,      13.000423408644,       3.000427746898,       0.000000000000
104,      14.001608942498,       3.001609154939,       0.000000000000
105,      15.004494940552,       3.004452276646,       0.000000000000
106,      16.008750830192,       3.008283786309,       0.000000000000
107,      17.010118730243,       3.012940243352,       0.000000000000
108,      18.006796714933,       3.032897989353,       0.000000000000
109,      19.002976577250,       3.058723987273,       0.000000000000
110,      20.000000017575,       3.067365666514,       0.000000000000
111,      20.997023451612,       3.058723990517,       0.000000000000
112,      21.993203300797,       3.032897992908,       0.000000000000
113,      22.989881275884,       3.012940245728,       0.000000000000
114,      23.991249171949,       3.008283787551,       0.000000000000
115,      24.995505055374,       3.004452276199,       0.000000000000
116,      25.998390881638,       3.001609117700,       0.000000000000
117,      26.999572390627,       3.000426785382,       0.000000000000
118,      27.999920628223,       3.000078930941,       0.000000000000
119,      28.999989455543,       3.000010225875,       0.000000000000
120,      30.000000000000,       3.000000000000,       0.000000000000
121,       0.000000000000,       4.000000000000,       0.000000000000
122,       1.086444412351,       4.000835490474,       0.000000000000
123,       6.890437194574,       3.999919691965,       0.000000000000
124,       7.922191716265,       4.000039481053,       0.000000000000
125,       8.976069860781,       4.000027097068,       0.000000000000
126,       9.994869182970,       4.000009516759,       0.000000000000
127,      10.999284014363,       4.000030923870,       0.000000000000
128,      12.000154700931,       4.000216014913,       0.000000000000
129,      13.001157424247,       4.001167283785,       0.000000000000
130,      14.004452096934,       4.004494955434,       0.000000000000
131,      15.011612884882,       4.011612884358,       0.000000000000
132,      16.024963200653,       4.024068588208,       0.000000000000
133,      17.030963268359,       4.019786323292,       0.000000000000
134,      17.992193926901,       4.012277789053,       0.000000000000
135,      18.986962875550,       4.205637377132,       0.000000000000
136,      20.000000053499,       4.092554341932,       0.000000000000
137,      21.013037219671,       4.205637393270,       0.000000000000
138,      22.007806112633,       4.012277802055,       0.000000000000
139,      22.969036750437,       4.019786333056,       0.000000000000
140,      23.975036806596,       4.024068593351,       0.000000000000
141,      24.988387111859,       4.011612886170,       0.000000000000
142,      25.995547708702,       4.004494955979,       0.000000000000
143,      26.998837900881,       4.001167281490,       0.000000000000
144,      27.999772290639,       4.000215945525,       0.000000000000
145,      28.999966112152,       4.000029881770,       0.000000000000
146,      30.000000000000,       4.000000000000,       0.000000000000
147,       0.000000000000,       5.000000000000,       0.000000000000
148,       1.230590336671,       4.966351467399,       0.000000000000
149,       1.868581901892,       5.289624451332,       0.000000000000
150,       6.128653332073,       5.288078936588,       0.000000000000
151,       6.751607211502,       4.962203202243,       0.000000000000
152,       7.929631617162,       4.987406059359,       0.000000000000
153,       8.979006218268,       4.995537708302,       0.000000000000
154,       9.995493188078,       4.998935708806,       0.000000000000
155,      10.999434441472,       4.999910925191,       0.000000000000
156,      12.000537237130,       5.000459539698,       0.000000000000
157,      13.002534818349,       5.002295254851,       0.000000000000
158,      14.008283651192,       5.008750815010,       0.000000000000
159,      15.024068598972,       5.024963182872,       0.000000000000
160,      16.035047393124,       5.035047351188,       0.000000000000
161,      17.108621989537,       5.112538110272,       0.000000000000
162,      18.024702532766,       4.825945277224,       0.000000000000
163,      18.588547681435,       4.778003723358,       0.000000000000
164,      21.411452427129,       4.778003756580,       0.000000000000
165,      21.975297547472,       4.825945312171,       0.000000000000
166,      22.891378058113,       5.112538142490,       0.000000000000
167,      23.964952621198,       5.035047364995,       0.000000000000
168,      24.975931400181,       5.024963190433,       0.000000000000
169,      25.991716172719,       5.008750855956,       0.000000000000
170,      26.997460975281,       5.002296220189,       0.000000000000
171,      27.999397613261,       5.000475227767,       0.000000000000
172,      28.999901877116,       5.000073568235,       0.000000000000
173,      30.000000000000,       5.000000000000,       0.000000000000
174,       0.000000000000,       6.000000000000,       0.000000000000
175,       1.042864833855,       5.995239322661,       0.000000000000
176,       2.068549401468,       5.930379842920,       0.000000000000
177,       2.711748750038,       6.128872049855,       0.000000000000
178,       5.288192104413,       6.128588338411,       0.000000000000
179,       5.929126631388,       5.929048202504,       0.000000000000
180,       6.943898156260,       5.989998692548,       0.000000000000
181,       7.957470917015,       5.986930442720,       0.000000000000
182,       8.986400374119,       5.994804193801,       0.000000000000
183,       9.996998293211,       5.998710213579,       0.000000000000
184,      10.999778643834,       5.999935303457,       0.000000000000
185,      12.001406211981,       6.000831911783,       0.000000000000
186,      13.005754391746,       6.003418474991,       0.000000000000
187,      14.012940196124,       6.010118711731,       0.000000000000
188,      15.019786345202,       6.030963231650,       0.000000000000
189,      16.112538195491,       6.108621877335,       0.000000000000
190,      16.808362943631,       5.808362815419,       0.000000000000
191,      23.191637097119,       5.808362853851,       0.000000000000
192,      23.887461825507,       6.108621916243,       0.000000000000
193,      24.980213653878,       6.030963263377,       0.000000000000
194,      25.987059670890,       6.010118788677,       0.000000000000
195,      26.994242557650,       6.003419815258,       0.000000000000
196,      27.998547782668,       6.000852704149,       0.000000000000
197,      28.999765565443,       6.000141651568,       0.000000000000
198,      30.000000000000,       6.000000000000,       0.000000000000
199,       0.000000000000,       7.000000000000,       0.000000000000
200,       1.017594519933,       6.979729981050,       0.000000000000
201,       2.008594745573,       6.944776853546,       0.000000000000
202,       3.037652572184,       6.751803864043,       0.000000000000
203,       4.000058896075,       6.890729919769,       0.000000000000
204,       4.962289401179,       6.751622514970,       0.000000000000
205,       5.990034694058,       6.943880795238,       0.000000000000
206,       6.976418218210,       6.976405314578,       0.000000000000
207,       7.985210784589,       6.991215953873,       0.000000000000
208,       8.993959047353,       6.996701917529,       0.000000000000
209,       9.998567236830,       6.999165750123,       0.000000000000
210,      11.000201491069,       7.000047312572,       0.000000000000
211,      12.002794041839,       7.001114018539,       0.000000000000
212,      13.011942690126,       7.003916167875,       0.000000000000
213,      14.032898046746,       7.006796702864,       0.000000000000
214,      15.012277815285,       6.992193869093,       0.000000000000
215,      15.825945344945,       7.024702397087,       0.000000000000
216,      24.174054659441,       7.024702496793,       0.000000000000
217,      24.987722166431,       6.992194039046,       0.000000000000
218,      25.967101855780,       7.006796899143,       0.000000000000
219,      26.988055547924,       7.003917292086,       0.000000000000
220,      27.997180815217,       7.001129520808,       0.000000000000
221,      28.999563721182,       7.000190328333,       0.000000000000
222,      30.000000000000,       7.000000000000,       0.000000000000
223,       0.000000000000,       8.000000000000,       0.000000000000
224,       1.006899490364,       7.986673593899,       0.000000000000
225,       2.012573120687,       7.957845964013,       0.000000000000
226,       3.012526095255,       7.929748894361,       0.000000000000
227,       4.000014948233,       7.922403051124,       0.000000000000
228,       4.987426672979,       7.929674367770,       0.000000000000
229,       5.986944217273,       7.957471909577,       0.000000000000
230,       6.991220791334,       7.985208028431,       0.000000000000
231,       7.995061327753,       7.995059945930,       0.000000000000
232,       8.998114173624,       7.998542171693,       0.000000000000
233,       9.999554449526,       7.999652651486,       0.000000000000
234,      11.000542324234,       8.000082222846,       0.000000000000
235,      12.004165550754,       8.000866184866,       0.000000000000
236,      13.018579816284,       8.002845253722,       0.000000000000
237,      14.058724129394,       8.002976558323,       0.000000000000
238,      15.205637404261,       7.986962770140,       0.000000000000
239,      15.778003774825,       7.588547532974,       0.000000000000
240,      24.221996218553,       7.588547687396,       0.000000000000
241,      24.794362498809,       7.986963628514,       0.000000000000
242,      25.941275753200,       8.002977297039,       0.000000000000
243,      26.981419385423,       8.002846019178,       0.000000000000
244,      27.995824196347,       8.000873792627,       0.000000000000
245,      28.999371864991,       8.000145897927,       0.000000000000
246,      30.000000000000,       8.000000000000,       0.000000000000
247,       0.000000000000,       9.000000000000,       0.000000000000
248,       1.002804361940,       8.994452947443,       0.000000000000
249,       2.005072338803,       8.986513199836,       0.000000000000
250,       3.004448333308,       8.979046517858,       0.000000000000
251,       4.000002295087,       8.976135574074,       0.000000000000
252,       4.995536436846,       8.979025383140,       0.000000000000
253,       5.994805996524,       8.986401469429,       0.000000000000
254,       6.996701941953,       8.993955873594,       0.000000000000
255,       7.998541776009,       8.998109841211,       0.000000000000
256,       8.999508728149,       8.999504082831,       0.000000000000
257,       9.999943505309,       8.999890258294,       0.000000000000
258,      11.000688195584,       8.999980345188,       0.000000000000
259,      12.004742609707,       8.999997468454,       0.000000000000
260,      13.021365197844,       8.999999784797,       0.000000000000
261,      14.067365844550,       8.999999980739,       0.000000000000
262,      15.092554347781,       8.999999969542,       0.000000000000
263,      24.907445110838,       9.000005268405,       0.000000000000
264,      25.932634128655,       9.000001372392,       0.000000000000
265,      26.978634542732,       9.000000305470,       0.000000000000
266,      27.995254459719,       9.000000048633,       0.000000000000
267,      28.999292237267,       9.000000005117,       0.000000000000
268,      30.000000000000,       9.000000000000,       0.000000000000
269,       0.000000000000,      10.000000000000,       0.000000000000
270,       1.000744575546,       9.998649627879,       0.000000000000
271,       2.001280076665,       9.997000060459,       0.000000000000
272,       3.001070264911,       9.995491236563,       0.000000000000
273,       4.000000137949,       9.994877629768,       0.000000000000
274,       4.998926320966,       9.995486798129,       0.000000000000
275,       5.998695051646,       9.996974124946,       0.000000000000
276,       6.999146049931,       9.998522338658,       0.000000000000
277,       7.999638064071,       9.999491205389,       0.000000000000
278,       8.999894398446,       9.999871912247,       0.000000000000
279,      10.000037476906,       9.999959455740,       0.000000000000
280,      11.000627544520,       9.999848862751,       0.000000000000
281,      12.004175310677,       9.999125627930,       0.000000000000
282,      13.018580518631,       9.997154135450,       0.000000000000
283,      14.058724094293,       9.997023469174,       0.000000000000
284,      15.205637253694,      10.013037335630,       0.000000000000
285,      15.778003605236,      10.411452583014,       0.000000000000
286,      24.222004526499,      10.411441233677,       0.000000000000
287,      24.794364627747,      10.013040029055,       0.000000000000
288,      25.941276419142,       9.997024184628,       0.000000000000
289,      26.981419497128,       9.997154405723,       0.000000000000
290,      27.995824209156,       9.999126285128,       0.000000000000
291,      28.999371866226,       9.999854111110,       0.000000000000
292,      30.000000000000,      10.000000000000,       0.000000000000
293,       0.000000000000,      11.000000000000,       0.000000000000
294,       1.000124677499,      10.999786391719,       0.000000000000
295,       2.000203196625,      10.999547363414,       0.000000000000
296,       3.000162873078,      10.999336863410,       0.000000000000
297,       3.999999977535,      10.999251238926,       0.000000000000
298,       4.999836514435,      10.999336122169,       0.000000000000
299,       5.999792580450,      10.999542630445,       0.000000000000
300,       6.999855711530,      10.999762232094,       0.000000000000
301,       7.999935533358,      10.999910010407,       0.000000000000
302,       8.999983354034,      10.999974556391,       0.000000000000
303,      10.000040672108,      10.999975363066,       0.000000000000
304,      11.000438538062,      10.999807650030,       0.000000000000
305,      12.002819151570,      10.998870405638,       0.000000000000
306,      13.011944166282,      10.996083035487,       0.000000000000
307,      14.032897139424,      10.993204302625,       0.000000000000
308,      15.012274990490,      11.007809426139,       0.000000000000
309,      15.825941812865,      10.975301871141,       0.000000000000
310,      24.174076941087,      10.975272317820,       0.000000000000
311,      24.987731253763,      11.007801420345,       0.000000000000
312,      25.967104131358,      10.993203228661,       0.000000000000
313,      26.988055999934,      10.996082998717,       0.000000000000
314,      27.997180892607,      10.998870566205,       0.000000000000
315,      28.999563732211,      10.999809686015,       0.000000000000
316,      30.000000000000,      11.000000000000,       0.000000000000
317,       0.000000000000,      12.000000000000,       0.000000000000
318,       1.000013012816,      11.999977854351,       0.000000000000
319,       2.000020266122,      11.999954594111,       0.000000000000
320,       3.000015652256,      11.999934961264,       0.000000000000
321,       3.999999992770,      11.999927077829,       0.000000000000
322,       4.999984260239,      11.999934861118,       0.000000000000
323,       5.999979160564,      11.999953932969,       0.000000000000
324,       6.999984460966,      11.999974731160,       0.000000000000
325,       7.999992467856,      11.999989530622,       0.000000000000
326,       8.999999220734,      11.999995827615,       0.000000000000
327,      10.000024590932,      11.999983977249,       0.000000000000
328,      11.000235998970,      11.999857289663,       0.000000000000
329,      12.001451669893,      11.999147858338,       0.000000000000
330,      13.005754543631,      11.996583112272,       0.000000000000
331,      14.012930052443,      11.989891833355,       0.000000000000
332,      15.019756828827,      11.969070186540,       0.000000000000
333,      16.112475150477,      11.891461432133,       0.000000000000
334,      16.808282087892,      12.191751908940,       0.000000000000
335,      23.191764202814,      12.191705317113,       0.000000000000
336,      23.887554563054,      11.891424519026,       0.000000000000
337,      24.980250654666,      11.969060506769,       0.000000000000
338,      25.987071455968,      11.989889949317,       0.000000000000
339,      26.994245665346,      11.996582895747,       0.000000000000
340,      27.998548415422,      11.999147904167,       0.000000000000
341,      28.999765658970,      11.999858441624,       0.000000000000
342,      30.000000000000,      12.000000000000,       0.000000000000
343,       0.000000000000,      13.000000000000,       0.000000000000
344,       1.000000846852,      12.999998505780,       0.000000000000
345,       2.000001275195,      12.999997013037,       0.000000000000
346,       3.000000956559,      12.999995805555,       0.000000000000
347,       3.999999998982,      12.999995329182,       0.000000000000
348,       4.999999033873,      12.999995794951,       0.000000000000
349,       5.999998669693,      12.999996949481,       0.000000000000
350,       6.999998940672,      12.999998242198,       0.000000000000
351,       7.999999467347,      12.999999188542,       0.000000000000
352,       9.000000587815,      12.999999153307,       0.000000000000
353,      10.000010858869,      12.999991876878,       0.000000000000
354,      11.000098301781,      12.999926446758,       0.000000000000
355,      12.000598142382,      12.999529025642,       0.000000000000
356,      13.002517427283,      12.997725489952,       0.000000000000
357,      14.008204916483,      12.991328500510,       0.000000000000
358,      15.023853176667,      12.975263884291,       0.000000000000
359,      16.034579887139,      12.965543817266,       0.000000000000
360,      17.107873029335,      12.888746839714,       0.000000000000
361,      18.023637792983,      13.176602340695,       0.000000000000
362,      18.587638196586,      13.224742660784,       0.000000000000
363,      21.412396072918,      13.224729845078,       0.000000000000
364,      21.976398902890,      13.176582598494,       0.000000000000
365,      22.892163477085,      12.888717963147,       0.000000000000
366,      23.965434424319,      12.965529519526,       0.000000000000
367,      24.976151738991,      12.975258165925,       0.000000000000
368,      25.991796140664,      12.991327188422,       0.000000000000
369,      26.997482728309,      12.997725298502,       0.000000000000
370,      27.999401909440,      12.999529037305,       0.000000000000
371,      28.999902490884,      12.999927040673,       0.000000000000
372,      30.000000000000,      13.000000000000,       0.000000000000
373,       0.000000000000,      14.000000000000,       0.000000000000
374,       1.000000034431,      13.999999935066,       0.000000000000
375,       2.000000050663,      13.999999872735,       0.000000000000
376,       3.000000037211,      13.999999824252,       0.000000000000
377,       3.999999999907,      13.999999805453,       0.000000000000
378,       4.999999962083,      13.999999823487,       0.000000000000
379,       5.999999945960,      13.999999868828,       0.000000000000
380,       6.999999954706,      13.999999920676,       0.000000000000
381,       7.999999986840,      13.999999951205,       0.000000000000
382,       9.000000258529,      13.999999765600,       0.000000000000
383,      10.000003488467,      13.999997088013,       0.000000000000
384,      11.000031256936,      13.999972777555,       0.000000000000
385,      12.000206013867,      13.999805641755,       0.000000000000
386,      13.001049476007,      13.998945342200,       0.000000000000
387,      14.004025518317,      13.995932642798,       0.000000000000
388,      15.010445867425,      13.989548898477,       0.000000000000
389,      16.022670398993,      13.978465477811,       0.000000000000
390,      17.027556121248,      13.985942606066,       0.000000000000
391,      17.988355221871,      13.999383425742,       0.000000000000
392,      18.984749316642,      13.810079007312,       0.000000000000
393,      20.000009658855,      13.927732433878,       0.000000000000
394,      21.015272340688,      13.810073658427,       0.000000000000
395,      22.011658698039,      13.999376461865,       0.000000000000
396,      22.972454286403,      13.985935318776,       0.000000000000
397,      23.977335132689,      13.978460772930,       0.000000000000
398,      24.989555945741,      13.989547065183,       0.000000000000
399,      25.995974921063,      13.995932135153,       0.000000000000
400,      26.998950594757,      13.998945255185,       0.000000000000
401,      27.999794007068,      13.999805643593,       0.000000000000
402,      28.999969012681,      13.999972998125,       0.000000000000
403,      30.000000000000,      14.000000000000,       0.000000000000
404,       0.000000000000,      15.000000000000,       0.000000000000
405,       1.000000000000,      15.000000000000,       0.000000000000
406,       2.000000000000,      15.000000000000,       0.000000000000
407,       3.000000000000,      15.000000000000,       0.000000000000
408,       4.000000000000,      15.000000000000,       0.000000000000
409,       5.000000000000,      15.000000000000,       0.000000000000
410,       6.000000000000,      15.000000000000,       0.000000000000
411,       7.000000000000,      15.000000000000,       0.000000000000
412,       8.000000000000,      15.000000000000,       0.000000000000
413,       9.000000000000,      15.000000000000,       0.000000000000
414,      10.000000000000,      15.000000000000,       0.000000000000
415,      11.000000000000,      15.000000000000,       0.000000000000
416,      12.000000000000,      15.000000000000,       0.000000000000
417,      13.000000000000,      15.000000000000,       0.000000000000
418,      14.000000000000,      15.000000000000,       0.000000000000
419,      15.000000000000,      15.000000000000,       0.000000000000
420,      16.000000000000,      15.000000000000,       0.000000000000
421,      17.000000000000,      15.000000000000,       0.000000000000
422,      18.000000000000,      15.000000000000,       0.000000000000
423,      19.000000000000,      15.000000000000,       0.000000000000
424,      20.000000000000,      15.000000000000,       0.000000000000
425,      21.000000000000,      15.000000000000,       0.000000000000
426,      22.000000000000,      15.000000000000,       0.000000000000
427,      23.000000000000,      15.000000000000,       0.000000000000
428,      24.000000000000,      15.000000000000,       0.000000000000
429,      25.000000000000,      15.000000000000,       0.000000000000
430,      26.000000000000,      15.000000000000,       0.000000000000
431,      27.000000000000,      15.000000000000,       0.000000000000
432,      28.000000000000,      15.000000000000,       0.000000000000
433,      29.000000000000,      15.000000000000,       0.000000000000
434,      30.000000000000,      15.000000000000,       0.000000000000
435,       2.994954879766,       2.270871807443,       0.000000000000
436,       3.476054477514,       2.069849464558,       0.000000000000
437,       3.993200373101,       2.000011558765,       0.000000000000
438,       4.511317817279,       2.066465906757,       0.000000000000
439,       4.995003550210,       2.265074083694,       0.000000000000
440,       5.410971981329,       2.582552269781,       0.000000000000
441,       5.730478837070,       2.997282196002,       0.000000000000
442,       5.931440530300,       3.480830010580,       0.000000000000
443,       6.000000000000,       4.000000000000,       0.000000000000
444,       5.931871352407,       4.517564563847,       0.000000000000
445,       5.732112753642,       4.999892698578,       0.000000000000
446,       5.414305896806,       5.414121221911,       0.000000000000
447,       5.000101561882,       5.731992166819,       0.000000000000
448,       4.517748527142,       5.931822057707,       0.000000000000
449,       4.000137388436,       5.999999995281,       0.000000000000
450,       3.482540820139,       5.931899582581,       0.000000000000
451,       3.000226594868,       5.732181612416,       0.000000000000
452,       2.586068813190,       5.414495881566,       0.000000000000
453,       2.268279781955,       5.000572379397,       0.000000000000
454,       2.068437059690,       4.518714379616,       0.000000000000
455,       2.000000808082,       4.001797867935,       0.000000000000
456,       2.067451419883,       3.484969917879,       0.000000000000
457,       2.266075445984,       3.003252468786,       0.000000000000
458,       2.582362983894,       2.589218198811,       0.000000000000
459,      18.767982255932,       5.194460317077,       0.000000000000
460,      19.376864498793,       5.048835342948,       0.000000000000
461,      20.000000114790,       5.000000000000,       0.000000000000
462,      20.623135719053,       5.048835377305,       0.000000000000
463,      21.232017930279,       5.194460377361,       0.000000000000
464,      21.812172747135,       5.434045718950,       0.000000000000
465,      22.349017152445,       5.762390014607,       0.000000000000
466,      22.828427077770,       6.171572828277,       0.000000000000
467,      23.237609916042,       6.650982751970,       0.000000000000
468,      23.565954246208,       7.187827184303,       0.000000000000
469,      23.805539617234,       7.767982053027,       0.000000000000
470,      23.951164630416,       8.376864329899,       0.000000000000
471,      24.000000000000,       9.000000000000,       0.000000000000
472,      23.951156380822,       9.623187976688,       0.000000000000
473,      23.805546183388,      10.231997664811,       0.000000000000
474,      23.565992155255,      10.812098217168,       0.000000000000
475,      23.237678791347,      11.348922315459,       0.000000000000
476,      22.828512574732,      11.828341672179,       0.000000000000
477,      22.349101231207,      12.237548981180,       0.000000000000
478,      21.812242441321,      12.565918862492,       0.000000000000
479,      21.232068322183,      12.805523308229,       0.000000000000
480,      20.623168199188,      12.951159500137,       0.000000000000
481,      20.000019049262,      12.999999999955,       0.000000000000
482,      19.376874571620,      12.951166245617,       0.000000000000
483,      18.767987160229,      12.805541270652,       0.000000000000
484,      18.187829566791,      12.565955456957,       0.000000000000
485,      17.650983795779,      12.237610673368,       0.000000000000
486,      17.171573251522,      11.828427501014,       0.000000000000
487,      16.762390160883,      11.349017354055,       0.000000000000
488,      16.434045746330,      10.812172801014,       0.000000000000
489,      16.194460360919,      10.232017879491,       0.000000000000
490,      16.048835356960,       9.623135590051,       0.000000000000
491,      16.000000000000,       8.999999927064,       0.000000000000
492,      16.048835379119,       8.376864269439,       0.000000000000
493,      16.194460399404,       7.767982001635,       0.000000000000
494,      16.434045779045,       7.187827134611,       0.000000000000
495,      16.762390124093,       6.650982696652,       0.000000000000
496,      17.171572987202,       6.171572763305,       0.000000000000
497,      17.650982948176,       5.762389941602,       0.000000000000
498,      18.187827396533,       5.434045645939,       0.000000000000
*ELEMENT, type=CPS4, ELSET=Surface1
1, 1, 2, 33, 32
2, 2, 3, 34, 33
3, 3, 4, 35, 34
4, 4, 5, 36, 35
5, 5, 6, 37, 36
6, 6, 7, 38, 37
7, 7, 8, 39, 38
8, 8, 9, 40, 39
9, 9, 10, 41, 40
10, 10, 11, 42, 41
11, 11, 12, 43, 42
12, 12, 13, 44, 43
13, 13, 14, 45, 44
14, 14, 15, 46, 45
15, 15, 16, 47, 46
16, 16, 17, 48, 47
17, 17, 18, 49, 48
18, 18, 19, 50, 49
19, 19, 20, 51, 50
20, 20, 21, 52, 51
21, 21, 22, 53, 52
22, 22, 23, 54, 53
23, 23, 24, 55, 54
24, 24, 25, 56, 55
25, 25, 26, 57, 56
26, 26, 27, 58, 57
27, 27, 28, 59, 58
28, 28, 29, 60, 59
29, 29, 30, 61, 60
30, 30, 31, 62, 61
31, 32, 33, 64, 63
32, 33, 34, 65, 64
33, 34, 35, 66, 65
34, 37, 38, 68, 67
35, 38, 39, 69, 68
36, 39, 40, 70, 69
37, 40, 41, 71, 70
38, 41, 42, 72, 71
39, 42, 43, 73, 72
40, 43, 44, 74, 73
41, 44, 45, 75, 74
42, 45, 46, 76, 75
43, 46, 47, 77, 76
44, 47, 48, 78, 77
45, 48, 49, 79, 78
46, 49, 50, 80, 79
47, 50, 51, 81, 80
48, 51, 52, 82, 81
49, 52, 53, 83, 82
50, 53, 54, 84, 83
51, 54, 55, 85, 84
52, 55, 56, 86, 85
53, 56, 57, 87, 86
54, 57, 58, 88, 87
55, 58, 59, 89, 88
56, 59, 60, 90, 89
57, 60, 61, 91, 90
58, 61, 62, 92, 91
59, 63, 64, 94, 93
60, 64, 65, 95, 94
61, 68, 69, 97, 96
62, 69, 70, 98, 97
63, 70, 71, 99, 98
64, 71, 72, 100, 99
65, 72, 73, 101, 100
66, 73, 74, 102, 101
67, 74, 75, 103, 102
68, 75, 76, 104, 103
69, 76, 77, 105, 104
70, 77, 78, 106, 105
71, 78, 79, 107, 106
72, 79, 80, 108, 107
73, 80, 81, 109, 108
74, 81, 82, 110, 109
75, 82, 83, 111, 110
76, 83, 84, 112, 111
77, 84, 85, 113, 112
78, 85, 86, 114, 113
79, 86, 87, 115, 114
80, 87, 88, 116, 115
81, 88, 89, 117, 116
82, 89, 90, 118, 117
83, 90, 91, 119, 118
84, 91, 92, 120, 119
85, 93, 94, 122, 121
86, 97, 98, 124, 123
87, 98, 99, 125, 124
88, 99, 100, 126, 125
89, 100, 101, 127, 126
90, 101, 102, 128, 127
91, 102, 103, 129, 128
92, 103, 104, 130, 129
93, 104, 105, 131, 130
94, 105, 106, 132, 131
95, 106, 107, 133, 132
96, 107, 108, 134, 133
97, 108, 109, 135, 134
98, 109, 110, 136, 135
99, 110, 111, 137, 136
100, 111, 112, 138, 137
101, 112, 113, 139, 138
102, 113, 114, 140, 139
103, 114, 115, 141, 140
104, 115, 116, 142, 141
105, 116, 117, 143, 142
106, 117, 118, 144, 143
107, 118, 119, 145, 144
108, 119, 120, 146, 145
109, 121, 122, 148, 147
110, 123, 124, 152, 151
111, 124, 125, 153, 152
112, 125, 126, 154, 153
113, 126, 127, 155, 154
114, 127, 128, 156, 155
115, 128, 129, 157, 156
116, 129, 130, 158, 157
117, 130, 131, 159, 158
118, 131, 132, 160, 159
119, 132, 133, 161, 160
120, 133, 134, 162, 161
121, 134, 135, 163, 162
122, 137, 138, 165, 164
123, 138, 139, 166, 165
124, 139, 140, 167, 166
125, 140, 141, 168, 167
126, 141, 142, 169, 168
127, 142, 143, 170, 169
128, 143, 144, 171, 170
129, 144, 145, 172, 171
130, 145, 146, 173, 172
131, 147, 148, 175, 174
132, 148, 149, 176, 175
133, 150, 151, 180, 179
134, 151, 152, 181, 180
135, 152, 153, 182, 181
136, 153, 154, 183, 182
137, 154, 155, 184, 183
138, 155, 156, 185, 184
139, 156, 157, 186, 185
140, 157, 158, 187, 186
141, 158, 159, 188, 187
142, 159, 160, 189, 188
143, 160, 161, 190, 189
144, 166, 167, 192, 191
145, 167, 168, 193, 192
146, 168, 169, 194, 193
147, 169, 170, 195, 194
148, 170, 171, 196, 195
149, 171, 172, 197, 196
150, 172, 173, 198, 197
151, 174, 175, 200, 199
152, 175, 176, 201, 200
153, 176, 177, 202, 201
154, 178, 179, 205, 204
155, 179, 180, 206, 205
156, 180, 181, 207, 206
157, 181, 182, 208, 207
158, 182, 183, 209, 208
159, 183, 184, 210, 209
160, 184, 185, 211, 210
161, 185, 186, 212, 211
162, 186, 187, 213, 212
163, 187, 188, 214, 213
164, 188, 189, 215, 214
165, 192, 193, 217, 216
166, 193, 194, 218, 217
167, 194, 195, 219, 218
168, 195, 196, 220, 219
169, 196, 197, 221, 220
170, 197, 198, 222, 221
171, 199, 200, 224, 223
172, 200, 201, 225, 224
173, 201, 202, 226, 225
174, 202, 203, 227, 226
175, 203, 204, 228, 227
176, 204, 205, 229, 228
177, 205, 206, 230, 229
178, 206, 207, 231, 230
179, 207, 208, 232, 231
180, 208, 209, 233, 232
181, 209, 210, 234, 233
182, 210, 211, 235, 234
183, 211, 212, 236, 235
184, 212, 213, 237, 236
185, 213, 214, 238, 237
186, 214, 215, 239, 238
187, 216, 217, 241, 240
188, 217, 218, 242, 241
189, 218, 219, 243, 242
190, 219, 220, 244, 243
191, 220, 221, 245, 244
192, 221, 222, 246, 245
193, 223, 224, 248, 247
194, 224, 225, 249, 248
195, 225, 226, 250, 249
196, 226, 227, 251, 250
197, 227, 228, 252, 251
198, 228, 229, 253, 252
199, 229, 230, 254, 253
200, 230, 231, 255, 254
201, 231, 232, 256, 255
202, 232, 233, 257, 256
203, 233, 234, 258, 257
204, 234, 235, 259, 258
205, 235, 236, 260, 259
206, 236, 237, 261, 260
207, 237, 238, 262, 261
208, 241, 242, 264, 263
209, 242, 243, 265, 264
210, 243, 244, 266, 265
211, 244, 245, 267, 266
212, 245, 246, 268, 267
213, 247, 248, 270, 269
214, 248, 249, 271, 270
215, 249, 250, 272, 271
216, 250, 251, 273, 272
217, 251, 252, 274, 273
218, 252, 253, 275, 274
219, 253, 254, 276, 275
220, 254, 255, 277, 276
221, 255, 256, 278, 277
222, 256, 257, 279, 278
223, 257, 258, 280, 279
224, 258, 259, 281, 280
225, 259, 260, 282, 281
226, 260, 261, 283, 282
227, 261, 262, 284, 283
228, 263, 264, 288, 287
229, 264, 265, 289, 288
230, 265, 266, 290, 289
231, 266, 267, 291, 290
232, 267, 268, 292, 291
233, 269, 270, 294, 293
234, 270, 271, 295, 294
235, 271, 272, 296, 295
236, 272, 273, 297, 296
237, 273, 274, 298, 297
238, 274, 275, 299, 298
239, 275, 276, 300, 299
240, 276, 277, 301, 300
241, 277, 278, 302, 301
242, 278, 279, 303, 302
243, 279, 280, 304, 303
244, 280, 281, 305, 304
245, 281, 282, 306, 305
246, 282, 283, 307, 306
247, 283, 284, 308, 307
248, 284, 285, 309, 308
249, 286, 287, 311, 310
250, 287, 288, 312, 311
251, 288, 289, 313, 312
252, 289, 290, 314, 313
253, 290, 291, 315, 314
254, 291, 292, 316, 315
255, 293, 294, 318, 317
256, 294, 295, 319, 318
257, 295, 296, 320, 319
258, 296, 297, 321, 320
259, 297, 298, 322, 321
260, 298, 299, 323, 322
261, 299, 300, 324, 323
262, 300, 301, 325, 324
263, 301, 302, 326, 325
264, 302, 303, 327, 326
265, 303, 304, 328, 327
266, 304, 305, 329, 328
267, 305, 306, 330, 329
268, 306, 307, 331, 330
269, 307, 308, 332, 331
270, 308, 309, 333, 332
271, 310, 311, 337, 336
272, 311, 312, 338, 337
273, 312, 313, 339, 338
274, 313, 314, 340, 339
275, 314, 315, 341, 340
276, 315, 316, 342, 341
277, 317, 318, 344, 343
278, 318, 319, 345, 344
279, 319, 320, 346, 345
280, 320, 321, 347, 346
281, 321, 322, 348, 347
282, 322, 323, 349, 348
283, 323, 324, 350, 349
284, 324, 325, 351, 350
285, 325, 326, 352, 351
286, 326, 327, 353, 352
287, 327, 328, 354, 353
288, 328, 329, 355, 354
289, 329, 330, 356, 355
290, 330, 331, 357, 356
291, 331, 332, 358, 357
292, 332, 333, 359, 358
293, 333, 334, 360, 359
294, 335, 336, 366, 365
295, 336, 337, 367, 366
296, 337, 338, 368, 367
297, 338, 339, 369, 368
298, 339, 340, 370, 369
299, 340, 341, 371, 370
300, 341, 342, 372, 371
301, 343, 344, 374, 373
302, 344, 345, 375, 374
303, 345, 346, 376, 375
304, 346, 347, 377, 376
305, 347, 348, 378, 377
306, 348, 349, 379, 378
307, 349, 350, 380, 379
308, 350, 351, 381, 380
309, 351, 352, 382, 381
310, 352, 353, 383, 382
311, 353, 354, 384, 383
312, 354, 355, 385, 384
313, 355, 356, 386, 385
314, 356, 357, 387, 386
315, 357, 358, 388, 387
316, 358, 359, 389, 388
317, 359, 360, 390, 389
318, 360, 361, 391, 390
319, 361, 362, 392, 391
320, 363, 364, 395, 394
321, 364, 365, 396, 395
322, 365, 366, 397, 396
323, 366, 367, 398, 397
324, 367, 368, 399, 398
325, 368, 369, 400, 399
326, 369, 370, 401, 400
327, 370, 371, 402, 401
328, 371, 372, 403, 402
329, 373, 374, 405, 404
330, 374, 375, 406, 405
331, 375, 376, 407, 406
332, 376, 377, 408, 407
333, 377, 378, 409, 408
334, 378, 379, 410, 409
335, 379, 380, 411, 410
336, 380, 381, 412, 411
337, 381, 382, 413, 412
338, 382, 383, 414, 413
339, 383, 384, 415, 414
340, 384, 385, 416, 415
341, 385, 386, 417, 416
342, 386, 387, 418, 417
343, 387, 388, 419, 418
344, 388, 389, 420, 419
345, 389, 390, 421, 420
346, 390, 391, 422, 421
347, 391, 392, 423, 422
348, 392, 393, 424, 423
349, 393, 394, 425, 424
350, 394, 395, 426, 425
351, 395, 396, 427, 426
352, 396, 397, 428, 427
353, 397, 398, 429, 428
354, 398, 399, 430, 429
355, 399, 400, 431, 430
356, 400, 401, 432, 431
357, 401, 402, 433, 432
358, 402, 403, 434, 433
359, 66, 35, 436, 435
360, 35, 36, 437, 436
361, 36, 37, 438, 437
362, 37, 67, 439, 438
363, 67, 68, 440, 439
364, 68, 96, 441, 440
365, 96, 97, 442, 441
366, 97, 123, 443, 442
367, 123, 151, 444, 443
368, 151, 150, 445, 444
369, 150, 179, 446, 445
370, 179, 178, 447, 446
371, 178, 204, 448, 447
372, 204, 203, 449, 448
373, 203, 202, 450, 449
374, 202, 177, 451, 450
375, 177, 176, 452, 451
376, 176, 149, 453, 452
377, 149, 148, 454, 453
378, 148, 122, 455, 454
379, 122, 94, 456, 455
380, 94, 95, 457, 456
381, 95, 65, 458, 457
382, 65, 66, 435, 458
383, 163, 135, 460, 459
384, 135, 136, 461, 460
385, 136, 137, 462, 461
386, 137, 164, 463, 462
387, 164, 165, 464, 463
388, 165, 166, 465, 464
389, 166, 191, 466, 465
390, 191, 192, 467, 466
391, 192, 216, 468, 467
392, 216, 240, 469, 468
393, 240, 241, 470, 469
394, 241, 263, 471, 470
395, 263, 287, 472, 471
396, 287, 286, 473, 472
397, 286, 310, 474, 473
398, 310, 336, 475, 474
399, 336, 335, 476, 475
400, 335, 365, 477, 476
401, 365, 364, 478, 477
402, 364, 363, 479, 478
403, 363, 394, 480, 479
404, 394, 393, 481, 480
405, 393, 392, 482, 481
406, 392, 362, 483, 482
407, 362, 361, 484, 483
408, 361, 360, 485, 484
409, 360, 334, 486, 485
410, 334, 333, 487, 486
411, 333, 309, 488, 487
412, 309, 285, 489, 488
413, 285, 284, 490, 489
414, 284, 262, 491, 490
415, 262, 238, 492, 491
416, 238, 239, 493, 492
417, 239, 215, 494, 493
418, 215, 189, 495, 494
419, 189, 190, 496, 495
420, 190, 161, 497, 496
421, 161, 162, 498, 497
422, 162, 163, 459, 498
** ***** HOHQMesh boundary information ***** **
** mesh polynomial degree = 4
**  1 2 33 32
**  0 0 0 0
**  2 3 34 33
**  0 0 0 0
**  3 4 35 34
**  0 0 0 0
**  4 5 36 35
**  0 0 0 0
**  5 6 37 36
**  0 0 0 0
**  6 7 38 37
**  0 0 0 0
**  7 8 39 38
**  0 0 0 0
**  8 9 40 39
**  0 0 0 0
**  9 10 41 40
**  0 0 0 0
**  10 11 42 41
**  0 0 0 0
**  11 12 43 42
**  0 0 0 0
**  12 13 44 43
**  0 0 0 0
**  13 14 45 44
**  0 0 0 0
**  14 15 46 45
**  0 0 0 0
**  15 16 47 46
**  0 0 0 0
**  16 17 48 47
**  0 0 0 0
**  17 18 49 48
**  0 0 0 0
**  18 19 50 49
**  0 0 0 0
**  19 20 51 50
**  0 0 0 0
**  20 21 52 51
**  0 0 0 0
**  21 22 53 52
**  0 0 0 0
**  22 23 54 53
**  0 0 0 0
**  23 24 55 54
**  0 0 0 0
**  24 25 56 55
**  0 0 0 0
**  25 26 57 56
**  0 0 0 0
**  26 27 58 57
**  0 0 0 0
**  27 28 59 58
**  0 0 0 0
**  28 29 60 59
**  0 0 0 0
**  29 30 61 60
**  0 0 0 0
**  30 31 62 61
**  0 0 0 0
**  32 33 64 63
**  0 0 0 0
**  33 34 65 64
**  0 0 0 0
**  34 35 66 65
**  0 0 0 0
**  37 38 68 67
**  0 0 0 0
**  38 39 69 68
**  0 0 0 0
**  39 40 70 69
**  0 0 0 0
**  40 41 71 70
**  0 0 0 0
**  41 42 72 71
**  0 0 0 0
**  42 43 73 72
**  0 0 0 0
**  43 44 74 73
**  0 0 0 0
**  44 45 75 74
**  0 0 0 0
**  45 46 76 75
**  0 0 0 0
**  46 47 77 76
**  0 0 0 0
**  47 48 78 77
**  0 0 0 0
**  48 49 79 78
**  0 0 0 0
**  49 50 80 79
**  0 0 0 0
**  50 51 81 80
**  0 0 0 0
**  51 52 82 81
**  0 0 0 0
**  52 53 83 82
**  0 0 0 0
**  53 54 84 83
**  0 0 0 0
**  54 55 85 84
**  0 0 0 0
**  55 56 86 85
**  0 0 0 0
**  56 57 87 86
**  0 0 0 0
**  57 58 88 87
**  0 0 0 0
**  58 59 89 88
**  0 0 0 0
**  59 60 90 89
**  0 0 0 0
**  60 61 91 90
**  0 0 0 0
**  61 62 92 91
**  0 0 0 0
**  63 64 94 93
**  0 0 0 0
**  64 65 95 94
**  0 0 0 0
**  68 69 97 96
**  0 0 0 0
**  69 70 98 97
**  0 0 0 0
**  70 71 99 98
**  0 0 0 0
**  71 72 100 99
**  0 0 0 0
**  72 73 101 100
**  0 0 0 0
**  73 74 102 101
**  0 0 0 0
**  74 75 103 102
**  0 0 0 0
**  75 76 104 103
**  0 0 0 0
**  76 77 105 104
**  0 0 0 0
**  77 78 106 105
**  0 0 0 0
**  78 79 107 106
**  0 0 0 0
**  79 80 108 107
**  0 0 0 0
**  80 81 109 108
**  0 0 0 0
**  81 82 110 109
**  0 0 0 0
**  82 83 111 110
**  0 0 0 0
**  83 84 112 111
**  0 0 0 0
**  84 85 113 112
**  0 0 0 0
**  85 86 114 113
**  0 0 0 0
**  86 87 115 114
**  0 0 0 0
**  87 88 116 115
**  0 0 0 0
**  88 89 117 116
**  0 0 0 0
**  89 90 118 117
**  0 0 0 0
**  90 91 119 118
**  0 0 0 0
**  91 92 120 119
**  0 0 0 0
**  93 94 122 121
**  0 0 0 0
**  97 98 124 123
**  0 0 0 0
**  98 99 125 124
**  0 0 0 0
**  99 100 126 125
**  0 0 0 0
**  100 101 127 126
**  0 0 0 0
**  101 102 128 127
**  0 0 0 0
**  102 103 129 128
**  0 0 0 0
**  103 104 130 129
**  0 0 0 0
**  104 105 131 130
**  0 0 0 0
**  105 106 132 131
**  0 0 0 0
**  106 107 133 132
**  0 0 0 0
**  107 108 134 133
**  0 0 0 0
**  108 109 135 134
**  0 0 0 0
**  109 110 136 135
**  0 0 0 0
**  110 111 137 136
**  0 0 0 0
**  111 112 138 137
**  0 0 0 0
**  112 113 139 138
**  0 0 0 0
**  113 114 140 139
**  0 0 0 0
**  114 115 141 140
**  0 0 0 0
**  115 116 142 141
**  0 0 0 0
**  116 117 143 142
**  0 0 0 0
**  117 118 144 143
**  0 0 0 0
**  118 119 145 144
**  0 0 0 0
**  119 120 146 145
**  0 0 0 0
**  121 122 148 147
**  0 0 0 0
**  123 124 152 151
**  0 0 0 0
**  124 125 153 152
**  0 0 0 0
**  125 126 154 153
**  0 0 0 0
**  126 127 155 154
**  0 0 0 0
**  127 128 156 155
**  0 0 0 0
**  128 129 157 156
**  0 0 0 0
**  129 130 158 157
**  0 0 0 0
**  130 131 159 158
**  0 0 0 0
**  131 132 160 159
**  0 0 0 0
**  132 133 161 160
**  0 0 0 0
**  133 134 162 161
**  0 0 0 0
**  134 135 163 162
**  0 0 0 0
**  137 138 165 164
**  0 0 0 0
**  138 139 166 165
**  0 0 0 0
**  139 140 167 166
**  0 0 0 0
**  140 141 168 167
**  0 0 0 0
**  141 142 169 168
**  0 0 0 0
**  142 143 170 169
**  0 0 0 0
**  143 144 171 170
**  0 0 0 0
**  144 145 172 171
**  0 0 0 0
**  145 146 173 172
**  0 0 0 0
**  147 148 175 174
**  0 0 0 0
**  148 149 176 175
**  0 0 0 0
**  150 151 180 179
**  0 0 0 0
**  151 152 181 180
**  0 0 0 0
**  152 153 182 181
**  0 0 0 0
**  153 154 183 182
**  0 0 0 0
**  154 155 184 183
**  0 0 0 0
**  155 156 185 184
**  0 0 0 0
**  156 157 186 185
**  0 0 0 0
**  157 158 187 186
**  0 0 0 0
**  158 159 188 187
**  0 0 0 0
**  159 160 189 188
**  0 0 0 0
**  160 161 190 189
**  0 0 0 0
**  166 167 192 191
**  0 0 0 0
**  167 168 193 192
**  0 0 0 0
**  168 169 194 193
**  0 0 0 0
**  169 170 195 194
**  0 0 0 0
**  170 171 196 195
**  0 0 0 0
**  171 172 197 196
**  0 0 0 0
**  172 173 198 197
**  0 0 0 0
**  174 175 200 199
**  0 0 0 0
**  175 176 201 200
**  0 0 0 0
**  176 177 202 201
**  0 0 0 0
**  178 179 205 204
**  0 0 0 0
**  179 180 206 205
**  0 0 0 0
**  180 181 207 206
**  0 0 0 0
**  181 182 208 207
**  0 0 0 0
**  182 183 209 208
**  0 0 0 0
**  183 184 210 209
**  0 0 0 0
**  184 185 211 210
**  0 0 0 0
**  185 186 212 211
**  0 0 0 0
**  186 187 213 212
**  0 0 0 0
**  187 188 214 213
**  0 0 0 0
**  188 189 215 214
**  0 0 0 0
**  192 193 217 216
**  0 0 0 0
**  193 194 218 217
**  0 0 0 0
**  194 195 219 218
**  0 0 0 0
**  195 196 220 219
**  0 0 0 0
**  196 197 221 220
**  0 0 0 0
**  197 198 222 221
**  0 0 0 0
**  199 200 224 223
**  0 0 0 0
**  200 201 225 224
**  0 0 0 0
**  201 202 226 225
**  0 0 0 0
**  202 203 227 226
**  0 0 0 0
**  203 204 228 227
**  0 0 0 0
**  204 205 229 228
**  0 0 0 0
**  205 206 230 229
**  0 0 0 0
**  206 207 231 230
**  0 0 0 0
**  207 208 232 231
**  0 0 0 0
**  208 209 233 232
**  0 0 0 0
**  209 210 234 233
**  0 0 0 0
**  210 211 235 234
**  0 0 0 0
**  211 212 236 235
**  0 0 0 0
**  212 213 237 236
**  0 0 0 0
**  213 214 238 237
**  0 0 0 0
**  214 215 239 238
**  0 0 0 0
**  216 217 241 240
**  0 0 0 0
**  217 218 242 241
**  0 0 0 0
**  218 219 243 242
**  0 0 0 0
**  219 220 244 243
**  0 0 0 0
**  220 221 245 244
**  0 0 0 0
**  221 222 246 245
**  0 0 0 0
**  223 224 248 247
**  0 0 0 0
**  224 225 249 248
**  0 0 0 0
**  225 226 250 249
**  0 0 0 0
**  226 227 251 250
**  0 0 0 0
**  227 228 252 251
**  0 0 0 0
**  228 229 253 252
**  0 0 0 0
**  229 230 254 253
**  0 0 0 0
**  230 231 255 254
**  0 0 0 0
**  231 232 256 255
**  0 0 0 0
**  232 233 257 256
**  0 0 0 0
**  233 234 258 257
**  0 0 0 0
**  234 235 259 258
**  0 0 0 0
**  235 236 260 259
**  0 0 0 0
**  236 237 261 260
**  0 0 0 0
**  237 238 262 261
**  0 0 0 0
**  241 242 264 263
**  0 0 0 0
**  242 243 265 264
**  0 0 0 0
**  243 244 266 265
**  0 0 0 0
**  244 245 267 266
**  0 0 0 0
**  245 246 268 267
**  0 0 0 0
**  247 248 270 269
**  0 0 0 0
**  248 249 271 270
**  0 0 0 0
**  249 250 272 271
**  0 0 0 0
**  250 251 273 272
**  0 0 0 0
**  251 252 274 273
**  0 0 0 0
**  252 253 275 274
**  0 0 0 0
**  253 254 276 275
**  0 0 0 0
**  254 255 277 276
**  0 0 0 0
**  255 256 278 277
**  0 0 0 0
**  256 257 279 278
**  0 0 0 0
**  257 258 280 279
**  0 0 0 0
**  258 259 281 280
**  0 0 0 0
**  259 260 282 281
**  0 0 0 0
**  260 261 283 282
**  0 0 0 0
**  261 262 284 283
**  0 0 0 0
**  263 264 288 287
**  0 0 0 0
**  264 265 289 288
**  0 0 0 0
**  265 266 290 289
**  0 0 0 0
**  266 267 291 290
**  0 0 0 0
**  267 268 292 291
**  0 0 0 0
**  269 270 294 293
**  0 0 0 0
**  270 271 295 294
**  0 0 0 0
**  271 272 296 295
**  0 0 0 0
**  272 273 297 296
**  0 0 0 0
**  273 274 298 297
**  0 0 0 0
**  274 275 299 298
**  0 0 0 0
**  275 276 300 299
**  0 0 0 0
**  276 277 301 300
**  0 0 0 0
**  277 278 302 301
**  0 0 0 0
**  278 279 303 302
**  0 0 0 0
**  279 280 304 303
**  0 0 0 0
**  280 281 305 304
**  0 0 0 0
**  281 282 306 305
**  0 0 0 0
**  282 283 307 306
**  0 0 0 0
**  283 284 308 307
**  0 0 0 0
**  284 285 309 308
**  0 0 0 0
**  286 287 311 310
**  0 0 0 0
**  287 288 312 311
**  0 0 0 0
**  288 289 313 312
**  0 0 0 0
**  289 290 314 313
**  0 0 0 0
**  290 291 315 314
**  0 0 0 0
**  291 292 316 315
**  0 0 0 0
**  293 294 318 317
**  0 0 0 0
**  294 295 319 318
**  0 0 0 0
**  295 296 320 319
**  0 0 0 0
**  296 297 321 320
**  0 0 0 0
**  297 298 322 321
**  0 0 0 0
**  298 299 323 322
**  0 0 0 0
**  299 300 324 323
**  0 0 0 0
**  300 301 325 324
**  0 0 0 0
**  301 302 326 325
**  0 0 0 0
**  302 303 327 326
**  0 0 0 0
**  303 304 328 327
**  0 0 0 0
**  304 305 329 328
**  0 0 0 0
**  305 306 330 329
**  0 0 0 0
**  306 307 331 330
**  0 0 0 0
**  307 308 332 331
**  0 0 0 0
**  308 309 333 332
**  0 0 0 0
**  310 311 337 336
**  0 0 0 0
**  311 312 338 337
**  0 0 0 0
**  312 313 339 338
**  0 0 0 0
**  313 314 340 339
**  0 0 0 0
**  314 315 341 340
**  0 0 0 0
**  315 316 342 341
**  0 0 0 0
**  317 318 344 343
**  0 0 0 0
**  318 319 345 344
**  0 0 0 0
**  319 320 346 345
**  0 0 0 0
**  320 321 347 346
**  0 0 0 0
**  321 322 348 347
**  0 0 0 0
**  322 323 349 348
**  0 0 0 0
**  323 324 350 349
**  0 0 0 0
**  324 325 351 350
**  0 0 0 0
**  325 326 352 351
**  0 0 0 0
**  326 327 353 352
**  0 0 0 0
**  327 328 354 353
**  0 0 0 0
**  328 329 355 354
**  0 0 0 0
**  329 330 356 355
**  0 0 0 0
**  330 331 357 356
**  0 0 0 0
**  331 332 358 357
**  0 0 0 0
**  332 333 359 358
**  0 0 0 0
**  333 334 360 359
**  0 0 0 0
**  335 336 366 365
**  0 0 0 0
**  336 337 367 366
**  0 0 0 0
**  337 338 368 367
**  0 0 0 0
**  338 339 369 368
**  0 0 0 0
**  339 340 370 369
**  0 0 0 0
**  340 341 371 370
**  0 0 0 0
**  341 342 372 371
**  0 0 0 0
**  343 344 374 373
**  0 0 0 0
**  344 345 375 374
**  0 0 0 0
**  345 346 376 375
**  0 0 0 0
**  346 347 377 376
**  0 0 0 0
**  347 348 378 377
**  0 0 0 0
**  348 349 379 378
**  0 0 0 0
**  349 350 380 379
**  0 0 0 0
**  350 351 381 380
**  0 0 0 0
**  351 352 382 381
**  0 0 0 0
**  352 353 383 382
**  0 0 0 0
**  353 354 384 383
**  0 0 0 0
**  354 355 385 384
**  0 0 0 0
**  355 356 386 385
**  0 0 0 0
**  356 357 387 386
**  0 0 0 0
**  357 358 388 387
**  0 0 0 0
**  358 359 389 388
**  0 0 0 0
**  359 360 390 389
**  0 0 0 0
**  360 361 391 390
**  0 0 0 0
**  361 362 392 391
**  0 0 0 0
**  363 364 395 394
**  0 0 0 0
**  364 365 396 395
**  0 0 0 0
**  365 366 397 396
**  0 0 0 0
**  366 367 398 397
**  0 0 0 0
**  367 368 399 398
**  0 0 0 0
**  368 369 400 399
**  0 0 0 0
**  369 370 401 400
**  0 0 0 0
**  370 371 402 401
**  0 0 0 0
**  371 372 403 402
**  0 0 0 0
**  373 374 405 404
**  0 0 0 0
**  374 375 406 405
**  0 0 0 0
**  375 376 407 406
**  0 0 0 0
**  376 377 408 407
**  0 0 0 0
**  377 378 409 408
**  0 0 0 0
**  378 379 410 409
**  0 0 0 0
**  379 380 411 410
**  0 0 0 0
**  380 381 412 411
**  0 0 0 0
**  381 382 413 412
**  0 0 0 0
**  382 383 414 413
**  0 0 0 0
**  383 384 415 414
**  0 0 0 0
**  384 385 416 415
**  0 0 0 0
**  385 386 417 416
**  0 0 0 0
**  386 387 418 417
**  0 0 0 0
**  387 388 419 418
**  0 0 0 0
**  388 389 420 419
**  0 0 0 0
**  389 390 421 420
**  0 0 0 0
**  390 391 422 421
**  0 0 0 0
**  391 392 423 422
**  0 0 0 0
**  392 393 424 423
**  0 0 0 0
**  393 394 425 424
**  0 0 0 0
**  394 395 426 425
**  0 0 0 0
**  395 396 427 426
**  0 0 0 0
**  396 397 428 427
**  0 0 0 0
**  397 398 429 428
**  0 0 0 0
**  398 399 430 429
**  0 0 0 0
**  399 400 431 430
**  0 0 0 0
**  400 401 432 431
**  0 0 0 0
**  401 402 433 432
**  0 0 0 0
**  402 403 434 433
**  0 0 0 0
**  66 35 436 435
**  0 0 1 0
**        2.994954879766       2.270871807443       0.000000000000
**        3.061880527969       2.233667116256       0.000000000000
**        3.228925689725       2.154615376667       0.000000000000
**        3.402554527525       2.091320113948       0.000000000000
**        3.476054477514       2.069849464558       0.000000000000
**  35 36 437 436
**  0 0 1 0
**        3.476054477514       2.069849464558       0.000000000000
**        3.550384568839       2.051193707917       0.000000000000
**        3.732339885918       2.017991406848       0.000000000000
**        3.916584374836       2.001740298790       0.000000000000
**        3.993200373101       2.000011558765       0.000000000000
**  36 37 438 437
**  0 0 1 0
**        3.993200373101       2.000011558765       0.000000000000
**        4.069903353594       2.001221993028       0.000000000000
**        4.254438000696       2.016250695324       0.000000000000
**        4.436792184237       2.048279582576       0.000000000000
**        4.511317817279       2.066465906757       0.000000000000
**  37 67 439 438
**  0 0 1 0
**        4.511317817279       2.066465906757       0.000000000000
**        4.585163527209       2.087518981421       0.000000000000
**        4.759679088514       2.149895223920       0.000000000000
**        4.927671574779       2.228157611595       0.000000000000
**        4.995003550210       2.265074083694       0.000000000000
**  67 68 440 439
**  0 0 1 0
**        4.995003550210       2.265074083694       0.000000000000
**        5.060919661202       2.304579853701       0.000000000000
**        5.213415701337       2.410150215980       0.000000000000
**        5.355476322865       2.529393343496       0.000000000000
**        5.410971981329       2.582552269781       0.000000000000
**  68 96 441 440
**  0 0 1 0
**        5.410971981329       2.582552269781       0.000000000000
**        5.464409782833       2.637831145583       0.000000000000
**        5.584354297192       2.779417573054       0.000000000000
**        5.690660134061       2.931511202165       0.000000000000
**        5.730478837070       2.997282196002       0.000000000000
**  96 97 442 441
**  0 0 1 0
**        5.730478837070       2.997282196002       0.000000000000
**        5.767747994100       3.064549825295       0.000000000000
**        5.846853536566       3.232450643623       0.000000000000
**        5.910053804781       3.406961668321       0.000000000000
**        5.931440530300       3.480830010580       0.000000000000
**  97 123 443 442
**  0 0 1 0
**        5.931440530300       3.480830010580       0.000000000000
**        5.949972716899       3.555470582131       0.000000000000
**        5.982786052579       3.738161367060       0.000000000000
**        5.998521335785       3.923107409891       0.000000000000
**        6.000000000000       4.000000000000       0.000000000000
**  123 151 444 443
**  0 0 1 0
**        6.000000000000       4.000000000000       0.000000000000
**        5.998530679868       4.076649341983       0.000000000000
**        5.982894690196       4.261014650151       0.000000000000
**        5.950287575298       4.443145995852       0.000000000000
**        5.931871352407       4.517564563847       0.000000000000
**  151 150 445 444
**  0 0 1 0
**        5.931871352407       4.517564563847       0.000000000000
**        5.910615365140       4.591226628706       0.000000000000
**        5.847797334594       4.765274467277       0.000000000000
**        5.769162733957       4.932771794587       0.000000000000
**        5.732112753642       4.999892698578       0.000000000000
**  150 179 446 445
**  0 0 1 0
**        5.732112753642       4.999892698578       0.000000000000
**        5.692514263472       5.065549373771       0.000000000000
**        5.586784137291       5.217421907821       0.000000000000
**        5.467469502055       5.358872054513       0.000000000000
**        5.414305896806       5.414121221911       0.000000000000
**  179 178 447 446
**  0 0 1 0
**        5.414305896806       5.414121221911       0.000000000000
**        5.359061523935       5.467294031256       0.000000000000
**        5.217621176124       5.586631233606       0.000000000000
**        5.065755939399       5.692384199181       0.000000000000
**        5.000101561882       5.731992166819       0.000000000000
**  178 204 448 447
**  0 0 1 0
**        5.000101561882       5.731992166819       0.000000000000
**        4.932978555940       5.769053705843       0.000000000000
**        4.765473852924       5.847714745433       0.000000000000
**        4.591415663269       5.910556859463       0.000000000000
**        4.517748527142       5.931822057707       0.000000000000
**  204 203 449 448
**  0 0 1 0
**        4.517748527142       5.931822057707       0.000000000000
**        4.443324135352       5.950247089734       0.000000000000
**        4.261177168186       5.982873290661       0.000000000000
**        4.076794394745       5.998525111410       0.000000000000
**        4.000137388436       5.999999995281       0.000000000000
**  203 202 450 449
**  0 0 1 0
**        4.000137388436       5.999999995281       0.000000000000
**        3.923483805932       5.998535782028       0.000000000000
**        3.739107540310       5.982910770680       0.000000000000
**        3.556964432503       5.950312663634       0.000000000000
**        3.482540820139       5.931899582581       0.000000000000
**  202 177 451 450
**  0 0 1 0
**        3.482540820139       5.931899582581       0.000000000000
**        3.408881602859       5.910648853286       0.000000000000
**        3.234839561829       5.847844556194       0.000000000000
**        3.067346339951       5.769225014066       0.000000000000
**        3.000226594868       5.732181612416       0.000000000000
**  177 176 452 451
**  0 0 1 0
**        3.000226594868       5.732181612416       0.000000000000
**        2.934583425237       5.692597861933       0.000000000000
**        2.782739337616       5.586907835954       0.000000000000
**        2.641311047766       5.467639032964       0.000000000000
**        2.586068813190       5.414495881566       0.000000000000
**  176 149 453 452
**  0 0 1 0
**        2.586068813190       5.414495881566       0.000000000000
**        2.532915952696       5.359288195397       0.000000000000
**        2.413616106792       5.217943407294       0.000000000000
**        2.307884127347       5.066181913894       0.000000000000
**        2.268279781955       5.000572379397       0.000000000000
**  149 148 454 453
**  0 0 1 0
**        2.268279781955       5.000572379397       0.000000000000
**        2.231231185432       4.933518548617       0.000000000000
**        2.152580811629       4.766186884800       0.000000000000
**        2.089719298314       4.592307049398       0.000000000000
**        2.068437059690       4.518714379616       0.000000000000
**  148 122 455 454
**  0 0 1 0
**        2.068437059690       4.518714379616       0.000000000000
**        2.049996307029       4.444393516378       0.000000000000
**        2.017300862485       4.262495962057       0.000000000000
**        2.001535543301       4.078356973592       0.000000000000
**        2.000000808082       4.001797867935       0.000000000000
**  122 94 456 455
**  0 0 1 0
**        2.000000808082       4.001797867935       0.000000000000
**        2.001396703854       3.925268048106       0.000000000000
**        2.016818017094       3.741177236941       0.000000000000
**        2.049159464021       3.559294652650       0.000000000000
**        2.067451419883       3.484969917879       0.000000000000
**  94 95 457 456
**  0 0 1 0
**        2.067451419883       3.484969917879       0.000000000000
**        2.088567392078       3.411420875862       0.000000000000
**        2.151008589523       3.237615081483       0.000000000000
**        2.229215839637       3.070310020809       0.000000000000
**        2.266075445984       3.003252468786       0.000000000000
**  95 65 458 457
**  0 0 1 0
**        2.266075445984       3.003252468786       0.000000000000
**        2.305470145897       2.937658918448       0.000000000000
**        2.410679020227       2.785891758015       0.000000000000
**        2.529437721385       2.644475531495       0.000000000000
**        2.582362983894       2.589218198811       0.000000000000
**  65 66 435 458
**  0 0 1 0
**        2.582362983894       2.589218198811       0.000000000000
**        2.637374979477       2.536014667613       0.000000000000
**        2.778245814552       2.416549113379       0.000000000000
**        2.929537177645       2.310589053559       0.000000000000
**        2.994954879766       2.270871807443       0.000000000000
**  163 135 460 459
**  0 0 1 0
**       18.767982255932       5.194460317077       0.000000000000
**       18.855614504914       5.167196608403       0.000000000000
**       19.069569965481       5.109717240243       0.000000000000
**       19.286379567680       5.064171513064       0.000000000000
**       19.376864498793       5.048835342948       0.000000000000
**  135 136 461 460
**  0 0 1 0
**       19.376864498793       5.048835342948       0.000000000000
**       19.467530680914       5.035598856797       0.000000000000
**       19.687476960639       5.012227520298       0.000000000000
**       19.908378830055       5.001049442514       0.000000000000
**       20.000000114790       5.000000000000       0.000000000000
**  136 137 462 461
**  0 0 1 0
**       20.000000114790       5.000000000000       0.000000000000
**       20.091621398141       5.001049447742       0.000000000000
**       20.312523263733       5.012227537882       0.000000000000
**       20.532469538974       5.035598886330       0.000000000000
**       20.623135719053       5.048835377305       0.000000000000
**  137 164 463 462
**  0 0 1 0
**       20.623135719053       5.048835377305       0.000000000000
**       20.713620645745       5.064171551761       0.000000000000
**       20.930430236943       5.109717288656       0.000000000000
**       21.144385686113       5.167196665439       0.000000000000
**       21.232017930279       5.194460377361       0.000000000000
**  164 165 464 463
**  0 0 1 0
**       21.232017930279       5.194460377361       0.000000000000
**       21.319226887702       5.223806093596       0.000000000000
**       21.526802051377       5.302855764795       0.000000000000
**       21.729669292386       5.393305649354       0.000000000000
**       21.812172747135       5.434045718950       0.000000000000
**  165 166 465 464
**  0 0 1 0
**       21.812172747135       5.434045718950       0.000000000000
**       21.893926356781       5.476785139239       0.000000000000
**       22.087062011349       5.587644191942       0.000000000000
**       22.273728933222       5.709079651795       0.000000000000
**       22.349017152445       5.762390014607       0.000000000000
**  166 191 466 465
**  0 0 1 0
**       22.349017152445       5.762390014607       0.000000000000
**       22.423172171279       5.817510938222       0.000000000000
**       22.596794145287       5.957524007161       0.000000000000
**       22.762341996632       6.106996941992       0.000000000000
**       22.828427077770       6.171572828277       0.000000000000
**  191 192 467 466
**  0 0 1 0
**       22.828427077770       6.171572828277       0.000000000000
**       22.893002967744       6.237657908835       0.000000000000
**       23.042475911377       6.403205759269       0.000000000000
**       23.182488988927       6.576827733041       0.000000000000
**       23.237609916042       6.650982751970       0.000000000000
**  192 216 468 467
**  0 0 1 0
**       23.237609916042       6.650982751970       0.000000000000
**       23.290920284505       6.726270974581       0.000000000000
**       23.412355757185       6.912937905475       0.000000000000
**       23.523214821491       7.106073570166       0.000000000000
**       23.565954246208       7.187827184303       0.000000000000
**  216 240 469 468
**  0 0 1 0
**       23.565954246208       7.187827184303       0.000000000000
**       23.606694321148       7.270330646107       0.000000000000
**       23.697144217178       7.473197904971       0.000000000000
**       23.776193897750       7.680773087526       0.000000000000
**       23.805539617234       7.767982053027       0.000000000000
**  240 241 470 469
**  0 0 1 0
**       23.805539617234       7.767982053027       0.000000000000
**       23.832803332352       7.855614306489       0.000000000000
**       23.890282715067       8.069569778623       0.000000000000
**       23.935828455327       8.286379393348       0.000000000000
**       23.951164630416       8.376864329899       0.000000000000
**  241 263 471 470
**  0 0 1 0
**       23.951164630416       8.376864329899       0.000000000000
**       23.964401121538       8.467530519610       0.000000000000
**       23.987772468538       8.687476818190       0.000000000000
**       23.998950554668       8.908378707068       0.000000000000
**       24.000000000000       9.000000000000       0.000000000000
**  263 287 472 471
**  0 0 1 0
**       24.000000000000       9.000000000000       0.000000000000
**       23.998950377034       9.091629045705       0.000000000000
**       23.987770399815       9.312549577436       0.000000000000
**       23.964395104602       9.532514276433       0.000000000000
**       23.951156380822       9.623187976688       0.000000000000
**  287 286 473 472
**  0 0 1 0
**       23.951156380822       9.623187976688       0.000000000000
**       23.935820948480       9.713662007888       0.000000000000
**       23.890279035814       9.930445604807       0.000000000000
**       23.832806319675      10.144375688250       0.000000000000
**       23.805546183388      10.231997664811       0.000000000000
**  286 310 474 473
**  0 0 1 0
**       23.805546183388      10.231997664811       0.000000000000
**       23.776203940553      10.319198165308       0.000000000000
**       23.697164255511      10.526753571396       0.000000000000
**       23.606726555425      10.729602137600       0.000000000000
**       23.565992155255      10.812098217168       0.000000000000
**  310 336 475 474
**  0 0 1 0
**       23.565992155255      10.812098217168       0.000000000000
**       23.523256771060      10.893848390231       0.000000000000
**       23.412408184191      11.086976373720       0.000000000000
**       23.290984154659      11.273636579091       0.000000000000
**       23.237678791347      11.348922315459       0.000000000000
**  336 335 476 475
**  0 0 1 0
**       23.237678791347      11.348922315459       0.000000000000
**       23.182560360337      11.423078527992       0.000000000000
**       23.042553229176      11.596703650328       0.000000000000
**       22.893086100262      11.762255023793       0.000000000000
**       22.828512574732      11.828341672179       0.000000000000
**  335 365 477 476
**  0 0 1 0
**       22.828512574732      11.828341672179       0.000000000000
**       22.762427641462      11.892921278861       0.000000000000
**       22.596879634541      12.042403024536       0.000000000000
**       22.423256803271      12.182424620537       0.000000000000
**       22.349101231207      12.237548981180       0.000000000000
**  365 364 478 477
**  0 0 1 0
**       22.349101231207      12.237548981180       0.000000000000
**       22.273811299922      12.290863438726       0.000000000000
**       22.087139665897      12.412308311838       0.000000000000
**       21.893998530768      12.523176062227       0.000000000000
**       21.812242441321      12.565918862492       0.000000000000
**  364 363 479 478
**  0 0 1 0
**       21.812242441321      12.565918862492       0.000000000000
**       21.729736453861      12.606662141120       0.000000000000
**       21.526862658788      12.697119205706       0.000000000000
**       21.319280376440      12.776175219497       0.000000000000
**       21.232068322183      12.805523308229       0.000000000000
**  363 394 480 479
**  0 0 1 0
**       21.232068322183      12.805523308229       0.000000000000
**       21.144433620565      12.832789022125       0.000000000000
**       20.930471983810      12.890272726602       0.000000000000
**       20.713655894053      12.935822057066       0.000000000000
**       20.623168199188      12.951159500137       0.000000000000
**  394 393 481 480
**  0 0 1 0
**       20.623168199188      12.951159500137       0.000000000000
**       20.532500103591      12.964397008332       0.000000000000
**       20.312549092565      12.987770437818       0.000000000000
**       20.091642369618      12.998950071718       0.000000000000
**       20.000019049262      12.999999999955       0.000000000000
**  393 392 482 481
**  0 0 1 0
**       20.000019049262      12.999999999955       0.000000000000
**       19.908396480370      12.998950961839       0.000000000000
**       19.687491482012      12.987773617720       0.000000000000
**       19.467542055624      12.964402670954       0.000000000000
**       19.376874571620      12.951166245617       0.000000000000
**  392 362 483 482
**  0 0 1 0
**       19.376874571620      12.951166245617       0.000000000000
**       19.286388874812      12.935830174437       0.000000000000
**       19.069577431044      12.890284545271       0.000000000000
**       18.855620151925      12.832805077658       0.000000000000
**       18.767987160229      12.805541270652       0.000000000000
**  362 361 484 483
**  0 0 1 0
**       18.767987160229      12.805541270652       0.000000000000
**       18.680777782658      12.776195538008       0.000000000000
**       18.473201620906      12.697145751738       0.000000000000
**       18.270333411773      12.606695647483       0.000000000000
**       18.187829566791      12.565955456957       0.000000000000
**  361 360 485 484
**  0 0 1 0
**       18.187829566791      12.565955456957       0.000000000000
**       18.106075745720      12.523215990973       0.000000000000
**       17.912939595481      12.412356790825       0.000000000000
**       17.726272202195      12.290921132676       0.000000000000
**       17.650983795779      12.237610673368       0.000000000000
**  360 334 486 485
**  0 0 1 0
**       17.650983795779      12.237610673368       0.000000000000
**       17.576828678562      12.182489708853       0.000000000000
**       17.403206477356      12.042476524273       0.000000000000
**       17.237658414936      11.893003450988       0.000000000000
**       17.171573251522      11.828427501014       0.000000000000
**  334 333 487 486
**  0 0 1 0
**       17.171573251522      11.828427501014       0.000000000000
**       17.106997320004      11.762342392524       0.000000000000
**       16.957524282305      11.596794467654       0.000000000000
**       16.817511120119      11.423172410176       0.000000000000
**       16.762390160883      11.349017354055       0.000000000000
**  333 309 488 487
**  0 0 1 0
**       16.762390160883      11.349017354055       0.000000000000
**       16.709079777679      11.273729115422       0.000000000000
**       16.587644272691      11.087062143373       0.000000000000
**       16.476785180935      10.893926434348       0.000000000000
**       16.434045746330      10.812172801014       0.000000000000
**  309 285 489 488
**  0 0 1 0
**       16.434045746330      10.812172801014       0.000000000000
**       16.393305668281      10.729669331851       0.000000000000
**       16.302855766141      10.526802054637       0.000000000000
**       16.223806081487      10.319226853042       0.000000000000
**       16.194460360919      10.232017879491       0.000000000000
**  285 284 490 489
**  0 0 1 0
**       16.194460360919      10.232017879491       0.000000000000
**       16.167196646932      10.144385624126       0.000000000000
**       16.109717267258       9.930430147476       0.000000000000
**       16.064171530479       9.713620528369       0.000000000000
**       16.048835356960       9.623135590051       0.000000000000
**  284 262 491 490
**  0 0 1 0
**       16.048835356960       9.623135590051       0.000000000000
**       16.035598867832       9.532469401247       0.000000000000
**       16.012227525447       9.312523105057       0.000000000000
**       16.001049443634       9.091621218828       0.000000000000
**       16.000000000000       8.999999927064       0.000000000000
**  262 238 492 491
**  0 0 1 0
**       16.000000000000       8.999999927064       0.000000000000
**       16.001049446963       8.908378635868       0.000000000000
**       16.012227536702       8.687476751323       0.000000000000
**       16.035598886838       8.467530457245       0.000000000000
**       16.048835379119       8.376864269439       0.000000000000
**  238 239 493 492
**  0 0 1 0
**       16.048835379119       8.376864269439       0.000000000000
**       16.064171555405       8.286379334158       0.000000000000
**       16.109717298334       8.069569722590       0.000000000000
**       16.167196683404       7.855614253720       0.000000000000
**       16.194460399404       7.767982001635       0.000000000000
**  239 215 494 493
**  0 0 1 0
**       16.194460399404       7.767982001635       0.000000000000
**       16.223806120149       7.680773036291       0.000000000000
**       16.302855803769       7.473197854247       0.000000000000
**       16.393305702846       7.270330596075       0.000000000000
**       16.434045779045       7.187827134611       0.000000000000
**  215 189 495 494
**  0 0 1 0
**       16.434045779045       7.187827134611       0.000000000000
**       16.476785205775       7.106073519443       0.000000000000
**       16.587644275186       6.912937852547       0.000000000000
**       16.709079753295       6.726270919871       0.000000000000
**       16.762390124093       6.650982696652       0.000000000000
**  189 190 496 495
**  0 0 1 0
**       16.762390124093       6.650982696652       0.000000000000
**       16.817511054564       6.576827675923       0.000000000000
**       16.957524140633       6.403205698333       0.000000000000
**       17.106997093329       6.237657844873       0.000000000000
**       17.171572987202       6.171572763305       0.000000000000
**  190 161 497 496
**  0 0 1 0
**       17.171572987202       6.171572763305       0.000000000000
**       17.237658073258       6.106996875259       0.000000000000
**       17.403205936936       5.957523936982       0.000000000000
**       17.576827923851       5.817510865789       0.000000000000
**       17.650982948176       5.762389941602       0.000000000000
**  161 162 498 497
**  0 0 1 0
**       17.650982948176       5.762389941602       0.000000000000
**       17.726271173495       5.709079578063       0.000000000000
**       17.912938110417       5.587644117468       0.000000000000
**       18.106073780413       5.476785065489       0.000000000000
**       18.187827396533       5.434045645939       0.000000000000
**  162 163 459 498
**  0 0 1 0
**       18.187827396533       5.434045645939       0.000000000000
**       18.270330857488       5.393305577479       0.000000000000
**       18.473198113553       5.302855696684       0.000000000000
**       18.680773292294       5.223806030714       0.000000000000
**       18.767982255932       5.194460317077       0.000000000000
** Left --- Bottom --- 
** --- --- Bottom --- 
** --- --- Bottom --- 
** --- --- Bottom --- 
** --- --- Bottom --- 
** --- --- Bottom --- 
** --- --- Bottom --- 
** --- --- Bottom --- 
** --- --- Bottom --- 
** --- --- Bottom --- 
** --- --- Bottom --- 
** --- --- Bottom --- 
** --- --- Bottom --- 
** --- --- Bottom --- 
** --- --- Bottom --- 
** --- --- Bottom --- 
** --- --- Bottom --- 
** --- --- Bottom --- 
** --- --- Bottom --- 
** --- --- Bottom --- 
** --- --- Bottom --- 
** --- --- Bottom --- 
** --- --- Bottom --- 
** --- --- Bottom --- 
** --- --- Bottom --- 
** --- --- Bottom --- 
** --- --- Bottom --- 
** --- --- Bottom --- 
** --- --- Bottom --- 
** --- Right Bottom --- 
** Left --- --- --- 
** --- --- --- --- 
** --- --- --- --- 
** --- --- --- --- 
** --- --- --- --- 
** --- --- --- --- 
** --- --- --- --- 
** --- --- --- --- 
** --- --- --- --- 
** --- --- --- --- 
** --- --- --- --- 
** --- --- --- --- 
** --- --- --- --- 
** --- --- --- --- 
** --- --- --- --- 
** --- --- --- --- 
** --- --- --- --- 
** --- --- --- --- 
** --- --- --- --- 
** --- --- --- --- 
** --- --- --- --- 
** --- --- --- --- 
** --- --- --- --- 
** --- --- --- --- 
** --- --- --- --- 
** --- --- --- --- 
** --- --- --- --- 
** --- Right --- --- 
** Left --- --- --- 
** --- --- --- --- 
** --- --- --- --- 
** --- --- --- --- 
** --- --- --- --- 
** --- --- --- --- 
** --- --- --- --- 
** --- --- --- --- 
** --- --- --- --- 
** --- --- --- --- 
** --- --- --- --- 
** --- --- --- --- 
** --- --- --- --- 
** --- --- --- --- 
** --- --- --- --- 
** --- --- --- --- 
** --- --- --- --- 
** --- --- --- --- 
** --- --- --- --- 
** --- --- --- --- 
** --- --- --- --- 
** --- --- --- --- 
** --- --- --- --- 
** --- --- --- --- 
** --- --- --- --- 
** --- Right --- --- 
** Left --- --- --- 
** --- --- --- --- 
** --- --- --- --- 
** --- --- --- --- 
** --- --- --- --- 
** --- --- --- --- 
** --- --- --- --- 
** --- --- --- --- 
** --- --- --- --- 
** --- --- --- --- 
** --- --- --- --- 
** --- --- --- --- 
** --- --- --- --- 
** --- --- --- --- 
** --- --- --- --- 
** --- --- --- --- 
** --- --- --- --- 
** --- --- --- --- 
** --- --- --- --- 
** --- --- --- --- 
** --- --- --- --- 
** --- --- --- --- 
** --- --- --- --- 
** --- Right --- --- 
** Left --- --- --- 
** --- --- --- --- 
** --- --- --- --- 
** --- --- --- --- 
** --- --- --- --- 
** --- --- --- --- 
** --- --- --- --- 
** --- --- --- --- 
** --- --- --- --- 
** --- --- --- --- 
** --- --- --- --- 
** --- --- --- --- 
** --- --- --- --- 
** --- --- --- --- 
** --- --- --- --- 
** --- --- --- --- 
** --- --- --- --- 
** --- --- --- --- 
** --- --- --- --- 
** --- --- --- --- 
** --- --- --- --- 
** --- Right --- --- 
** Left --- --- --- 
** --- --- --- --- 
** --- --- --- --- 
** --- --- --- --- 
** --- --- --- --- 
** --- --- --- --- 
** --- --- --- --- 
** --- --- --- --- 
** --- --- --- --- 
** --- --- --- --- 
** --- --- --- --- 
** --- --- --- --- 
** --- --- --- --- 
** --- --- --- --- 
** --- --- --- --- 
** --- --- --- --- 
** --- --- --- --- 
** --- --- --- --- 
** --- --- --- --- 
** --- Right --- --- 
** Left --- --- --- 
** --- --- --- --- 
** --- --- --- --- 
** --- --- --- --- 
** --- --- --- --- 
** --- --- --- --- 
** --- --- --- --- 
** --- --- --- --- 
** --- --- --- --- 
** --- --- --- --- 
** --- --- --- --- 
** --- --- --- --- 
** --- --- --- --- 
** --- --- --- --- 
** --- --- --- --- 
** --- --- --- --- 
** --- --- --- --- 
** --- --- --- --- 
** --- --- --- --- 
** --- Right --- --- 
** Left --- --- --- 
** --- --- --- --- 
** --- --- --- --- 
** --- --- --- --- 
** --- --- --- --- 
** --- --- --- --- 
** --- --- --- --- 
** --- --- --- --- 
** --- --- --- --- 
** --- --- --- --- 
** --- --- --- --- 
** --- --- --- --- 
** --- --- --- --- 
** --- --- --- --- 
** --- --- --- --- 
** --- --- --- --- 
** --- --- --- --- 
** --- --- --- --- 
** --- --- --- --- 
** --- --- --- --- 
** --- --- --- --- 
** --- Right --- --- 
** Left --- --- --- 
** --- --- --- --- 
** --- --- --- --- 
** --- --- --- --- 
** --- --- --- --- 
** --- --- --- --- 
** --- --- --- --- 
** --- --- --- --- 
** --- --- --- --- 
** --- --- --- --- 
** --- --- --- --- 
** --- --- --- --- 
** --- --- --- --- 
** --- --- --- --- 
** --- --- --- --- 
** --- --- --- --- 
** --- --- --- --- 
** --- --- --- --- 
** --- --- --- --- 
** --- Right --- --- 
** Left --- --- --- 
** --- --- --- --- 
** --- --- --- --- 
** --- --- --- --- 
** --- --- --- --- 
** --- --- --- --- 
** --- --- --- --- 
** --- --- --- --- 
** --- --- --- --- 
** --- --- --- --- 
** --- --- --- --- 
** --- --- --- --- 
** --- --- --- --- 
** --- --- --- --- 
** --- --- --- --- 
** --- --- --- --- 
** --- --- --- --- 
** --- --- --- --- 
** --- --- --- --- 
** --- Right --- --- 
** Left --- --- --- 
** --- --- --- --- 
** --- --- --- --- 
** --- --- --- --- 
** --- --- --- --- 
** --- --- --- --- 
** --- --- --- --- 
** --- --- --- --- 
** --- --- --- --- 
** --- --- --- --- 
** --- --- --- --- 
** --- --- --- --- 
** --- --- --- --- 
** --- --- --- --- 
** --- --- --- --- 
** --- --- --- --- 
** --- --- --- --- 
** --- --- --- --- 
** --- --- --- --- 
** --- --- --- --- 
** --- --- --- --- 
** --- Right --- --- 
** Left --- --- --- 
** --- --- --- --- 
** --- --- --- --- 
** --- --- --- --- 
** --- --- --- --- 
** --- --- --- --- 
** --- --- --- --- 
** --- --- --- --- 
** --- --- --- --- 
** --- --- --- --- 
** --- --- --- --- 
** --- --- --- --- 
** --- --- --- --- 
** --- --- --- --- 
** --- --- --- --- 
** --- --- --- --- 
** --- --- --- --- 
** --- --- --- --- 
** --- --- --- --- 
** --- --- --- --- 
** --- --- --- --- 
** --- Right --- --- 
** Left --- --- --- 
** --- --- --- --- 
** --- --- --- --- 
** --- --- --- --- 
** --- --- --- --- 
** --- --- --- --- 
** --- --- --- --- 
** --- --- --- --- 
** --- --- --- --- 
** --- --- --- --- 
** --- --- --- --- 
** --- --- --- --- 
** --- --- --- --- 
** --- --- --- --- 
** --- --- --- --- 
** --- --- --- --- 
** --- --- --- --- 
** --- --- --- --- 
** --- --- --- --- 
** --- --- --- --- 
** --- --- --- --- 
** --- --- --- --- 
** --- --- --- --- 
** --- Right --- --- 
** Left --- --- --- 
** --- --- --- --- 
** --- --- --- --- 
** --- --- --- --- 
** --- --- --- --- 
** --- --- --- --- 
** --- --- --- --- 
** --- --- --- --- 
** --- --- --- --- 
** --- --- --- --- 
** --- --- --- --- 
** --- --- --- --- 
** --- --- --- --- 
** --- --- --- --- 
** --- --- --- --- 
** --- --- --- --- 
** --- --- --- --- 
** --- --- --- --- 
** --- --- --- --- 
** --- --- --- --- 
** --- --- --- --- 
** --- --- --- --- 
** --- --- --- --- 
** --- --- --- --- 
** --- --- --- --- 
** --- --- --- --- 
** --- --- --- --- 
** --- Right --- --- 
** Left --- --- Top 
** --- --- --- Top 
** --- --- --- Top 
** --- --- --- Top 
** --- --- --- Top 
** --- --- --- Top 
** --- --- --- Top 
** --- --- --- Top 
** --- --- --- Top 
** --- --- --- Top 
** --- --- --- Top 
** --- --- --- Top 
** --- --- --- Top 
** --- --- --- Top 
** --- --- --- Top 
** --- --- --- Top 
** --- --- --- Top 
** --- --- --- Top 
** --- --- --- Top 
** --- --- --- Top 
** --- --- --- Top 
** --- --- --- Top 
** --- --- --- Top 
** --- --- --- Top 
** --- --- --- Top 
** --- --- --- Top 
** --- --- --- Top 
** --- --- --- Top 
** --- --- --- Top 
** --- Right --- Top 
** --- --- --- circle1 
** --- --- --- circle1 
** --- --- --- circle1 
** --- --- --- circle1 
** --- --- --- circle1 
** --- --- --- circle1 
** --- --- --- circle1 
** --- --- --- circle1 
** --- --- --- circle1 
** --- --- --- circle1 
** --- --- --- circle1 
** --- --- --- circle1 
** --- --- --- circle1 
** --- --- --- circle1 
** --- --- --- circle1 
** --- --- --- circle1 
** --- --- --- circle1 
** --- --- --- circle1 
** --- --- --- circle1 
** --- --- --- circle1 
** --- --- --- circle1 
** --- --- --- circle1 
** --- --- --- circle1 
** --- --- --- circle1 
** --- --- --- circle2 
** --- --- --- circle2 
** --- --- --- circle2 
** --- --- --- circle2 
** --- --- --- circle2 
** --- --- --- circle2 
** --- --- --- circle2 
** --- --- --- circle2 
** --- --- --- circle2 
** --- --- --- circle2 
** --- --- --- circle2 
** --- --- --- circle2 
** --- --- --- circle2 
** --- --- --- circle2 
** --- --- --- circle2 
** --- --- --- circle2 
** --- --- --- circle2 
** --- --- --- circle2 
** --- --- --- circle2 
** --- --- --- circle2 
** --- --- --- circle2 
** --- --- --- circle2 
** --- --- --- circle2 
** --- --- --- circle2 
** --- --- --- circle2 
** --- --- --- circle2 
** --- --- --- circle2 
** --- --- --- circle2 
** --- --- --- circle2 
** --- --- --- circle2 
** --- --- --- circle2 
** --- --- --- circle2 
** --- --- --- circle2 
** --- --- --- circle2 
** --- --- --- circle2 
** --- --- --- circle2 
** --- --- --- circle2 
** --- --- --- circle2 
** --- --- --- circle2 
** --- --- --- circle2 
